c Generated by SAT Solver
p cnf 5003 581
101 102 103 0
201 202 203 0
301 302 303 0
401 402 403 0
501 502 503 0
601 602 603 0
701 702 703 0
801 802 803 0
901 902 903 0
1001 1002 1003 0
1101 1102 1103 0
1201 1202 1203 0
1301 1302 1303 0
1401 1402 1403 0
1501 1502 1503 0
1601 1602 1603 0
1701 1702 1703 0
1801 1802 1803 0
1901 1902 1903 0
2001 2002 2003 0
2101 2102 2103 0
2201 2202 2203 0
2301 2302 2303 0
2401 2402 2403 0
2501 2502 2503 0
2601 2602 2603 0
2701 2702 2703 0
2801 2802 2803 0
2901 2902 2903 0
3001 3002 3003 0
3101 3102 3103 0
3201 3202 3203 0
3301 3302 3303 0
3401 3402 3403 0
3501 3502 3503 0
3601 3602 3603 0
3701 3702 3703 0
3801 3802 3803 0
3901 3902 3903 0
4001 4002 4003 0
4101 4102 4103 0
4201 4202 4203 0
4301 4302 4303 0
4401 4402 4403 0
4501 4502 4503 0
4601 4602 4603 0
4701 4702 4703 0
4801 4802 4803 0
4901 4902 4903 0
5001 5002 5003 0
-101 -102 0
-101 -103 0
-102 -103 0
-201 -202 0
-201 -203 0
-202 -203 0
-301 -302 0
-301 -303 0
-302 -303 0
-401 -402 0
-401 -403 0
-402 -403 0
-501 -502 0
-501 -503 0
-502 -503 0
-601 -602 0
-601 -603 0
-602 -603 0
-701 -702 0
-701 -703 0
-702 -703 0
-801 -802 0
-801 -803 0
-802 -803 0
-901 -902 0
-901 -903 0
-902 -903 0
-1001 -1002 0
-1001 -1003 0
-1002 -1003 0
-1101 -1102 0
-1101 -1103 0
-1102 -1103 0
-1201 -1202 0
-1201 -1203 0
-1202 -1203 0
-1301 -1302 0
-1301 -1303 0
-1302 -1303 0
-1401 -1402 0
-1401 -1403 0
-1402 -1403 0
-1501 -1502 0
-1501 -1503 0
-1502 -1503 0
-1601 -1602 0
-1601 -1603 0
-1602 -1603 0
-1701 -1702 0
-1701 -1703 0
-1702 -1703 0
-1801 -1802 0
-1801 -1803 0
-1802 -1803 0
-1901 -1902 0
-1901 -1903 0
-1902 -1903 0
-2001 -2002 0
-2001 -2003 0
-2002 -2003 0
-2101 -2102 0
-2101 -2103 0
-2102 -2103 0
-2201 -2202 0
-2201 -2203 0
-2202 -2203 0
-2301 -2302 0
-2301 -2303 0
-2302 -2303 0
-2401 -2402 0
-2401 -2403 0
-2402 -2403 0
-2501 -2502 0
-2501 -2503 0
-2502 -2503 0
-2601 -2602 0
-2601 -2603 0
-2602 -2603 0
-2701 -2702 0
-2701 -2703 0
-2702 -2703 0
-2801 -2802 0
-2801 -2803 0
-2802 -2803 0
-2901 -2902 0
-2901 -2903 0
-2902 -2903 0
-3001 -3002 0
-3001 -3003 0
-3002 -3003 0
-3101 -3102 0
-3101 -3103 0
-3102 -3103 0
-3201 -3202 0
-3201 -3203 0
-3202 -3203 0
-3301 -3302 0
-3301 -3303 0
-3302 -3303 0
-3401 -3402 0
-3401 -3403 0
-3402 -3403 0
-3501 -3502 0
-3501 -3503 0
-3502 -3503 0
-3601 -3602 0
-3601 -3603 0
-3602 -3603 0
-3701 -3702 0
-3701 -3703 0
-3702 -3703 0
-3801 -3802 0
-3801 -3803 0
-3802 -3803 0
-3901 -3902 0
-3901 -3903 0
-3902 -3903 0
-4001 -4002 0
-4001 -4003 0
-4002 -4003 0
-4101 -4102 0
-4101 -4103 0
-4102 -4103 0
-4201 -4202 0
-4201 -4203 0
-4202 -4203 0
-4301 -4302 0
-4301 -4303 0
-4302 -4303 0
-4401 -4402 0
-4401 -4403 0
-4402 -4403 0
-4501 -4502 0
-4501 -4503 0
-4502 -4503 0
-4601 -4602 0
-4601 -4603 0
-4602 -4603 0
-4701 -4702 0
-4701 -4703 0
-4702 -4703 0
-4801 -4802 0
-4801 -4803 0
-4802 -4803 0
-4901 -4902 0
-4901 -4903 0
-4902 -4903 0
-5001 -5002 0
-5001 -5003 0
-5002 -5003 0
-101 -1701 0
-102 -1702 0
-103 -1703 0
-101 -1801 0
-102 -1802 0
-103 -1803 0
-101 -3301 0
-102 -3302 0
-103 -3303 0
-101 -4301 0
-102 -4302 0
-103 -4303 0
-201 -1101 0
-202 -1102 0
-203 -1103 0
-201 -1701 0
-202 -1702 0
-203 -1703 0
-201 -3601 0
-202 -3602 0
-203 -3603 0
-201 -4201 0
-202 -4202 0
-203 -4203 0
-301 -2301 0
-302 -2302 0
-303 -2303 0
-301 -2701 0
-302 -2702 0
-303 -2703 0
-401 -1301 0
-402 -1302 0
-403 -1303 0
-401 -1401 0
-402 -1402 0
-403 -1403 0
-401 -1501 0
-402 -1502 0
-403 -1503 0
-401 -1701 0
-402 -1702 0
-403 -1703 0
-401 -2101 0
-402 -2102 0
-403 -2103 0
-401 -2201 0
-402 -2202 0
-403 -2203 0
-401 -2401 0
-402 -2402 0
-403 -2403 0
-401 -3101 0
-402 -3102 0
-403 -3103 0
-401 -3801 0
-402 -3802 0
-403 -3803 0
-501 -1101 0
-502 -1102 0
-503 -1103 0
-501 -2101 0
-502 -2102 0
-503 -2103 0
-501 -2701 0
-502 -2702 0
-503 -2703 0
-501 -3201 0
-502 -3202 0
-503 -3203 0
-601 -1501 0
-602 -1502 0
-603 -1503 0
-601 -3401 0
-602 -3402 0
-603 -3403 0
-601 -4501 0
-602 -4502 0
-603 -4503 0
-601 -4901 0
-602 -4902 0
-603 -4903 0
-701 -1001 0
-702 -1002 0
-703 -1003 0
-701 -1601 0
-702 -1602 0
-703 -1603 0
-701 -4001 0
-702 -4002 0
-703 -4003 0
-701 -4201 0
-702 -4202 0
-703 -4203 0
-701 -4801 0
-702 -4802 0
-703 -4803 0
-801 -1601 0
-802 -1602 0
-803 -1603 0
-801 -3601 0
-802 -3602 0
-803 -3603 0
-801 -4501 0
-802 -4502 0
-803 -4503 0
-901 -1501 0
-902 -1502 0
-903 -1503 0
-901 -2301 0
-902 -2302 0
-903 -2303 0
-901 -3701 0
-902 -3702 0
-903 -3703 0
-1001 -3001 0
-1002 -3002 0
-1003 -3003 0
-1001 -3101 0
-1002 -3102 0
-1003 -3103 0
-1001 -3801 0
-1002 -3802 0
-1003 -3803 0
-1001 -4401 0
-1002 -4402 0
-1003 -4403 0
-1001 -4601 0
-1002 -4602 0
-1003 -4603 0
-1101 -2301 0
-1102 -2302 0
-1103 -2303 0
-1101 -3401 0
-1102 -3402 0
-1103 -3403 0
-1101 -3601 0
-1102 -3602 0
-1103 -3603 0
-1101 -4101 0
-1102 -4102 0
-1103 -4103 0
-1101 -4901 0
-1102 -4902 0
-1103 -4903 0
-1201 -1601 0
-1202 -1602 0
-1203 -1603 0
-1201 -2001 0
-1202 -2002 0
-1203 -2003 0
-1201 -2101 0
-1202 -2102 0
-1203 -2103 0
-1201 -2701 0
-1202 -2702 0
-1203 -2703 0
-1201 -3001 0
-1202 -3002 0
-1203 -3003 0
-1201 -3401 0
-1202 -3402 0
-1203 -3403 0
-1201 -3601 0
-1202 -3602 0
-1203 -3603 0
-1301 -4001 0
-1302 -4002 0
-1303 -4003 0
-1401 -3101 0
-1402 -3102 0
-1403 -3103 0
-1501 -3201 0
-1502 -3202 0
-1503 -3203 0
-1501 -3701 0
-1502 -3702 0
-1503 -3703 0
-1501 -4101 0
-1502 -4102 0
-1503 -4103 0
-1501 -4301 0
-1502 -4302 0
-1503 -4303 0
-1501 -4801 0
-1502 -4802 0
-1503 -4803 0
-1601 -2001 0
-1602 -2002 0
-1603 -2003 0
-1601 -2501 0
-1602 -2502 0
-1603 -2503 0
-1601 -3101 0
-1602 -3102 0
-1603 -3103 0
-1601 -4301 0
-1602 -4302 0
-1603 -4303 0
-1601 -4401 0
-1602 -4402 0
-1603 -4403 0
-1601 -4501 0
-1602 -4502 0
-1603 -4503 0
-1601 -4701 0
-1602 -4702 0
-1603 -4703 0
-1701 -3101 0
-1702 -3102 0
-1703 -3103 0
-1701 -4101 0
-1702 -4102 0
-1703 -4103 0
-1701 -4601 0
-1702 -4602 0
-1703 -4603 0
-1701 -4701 0
-1702 -4702 0
-1703 -4703 0
-1801 -2001 0
-1802 -2002 0
-1803 -2003 0
-1801 -2401 0
-1802 -2402 0
-1803 -2403 0
-1801 -2601 0
-1802 -2602 0
-1803 -2603 0
-1801 -3101 0
-1802 -3102 0
-1803 -3103 0
-1801 -4201 0
-1802 -4202 0
-1803 -4203 0
-1801 -4501 0
-1802 -4502 0
-1803 -4503 0
-1801 -4701 0
-1802 -4702 0
-1803 -4703 0
-1901 -3101 0
-1902 -3102 0
-1903 -3103 0
-1901 -4401 0
-1902 -4402 0
-1903 -4403 0
-1901 -4701 0
-1902 -4702 0
-1903 -4703 0
-1901 -5001 0
-1902 -5002 0
-1903 -5003 0
-2001 -2201 0
-2002 -2202 0
-2003 -2203 0
-2001 -2301 0
-2002 -2302 0
-2003 -2303 0
-2001 -2701 0
-2002 -2702 0
-2003 -2703 0
-2001 -4001 0
-2002 -4002 0
-2003 -4003 0
-2101 -3201 0
-2102 -3202 0
-2103 -3203 0
-2101 -4801 0
-2102 -4802 0
-2103 -4803 0
-2201 -3301 0
-2202 -3302 0
-2203 -3303 0
-2301 -2801 0
-2302 -2802 0
-2303 -2803 0
-2301 -3001 0
-2302 -3002 0
-2303 -3003 0
-2301 -3601 0
-2302 -3602 0
-2303 -3603 0
-2301 -4201 0
-2302 -4202 0
-2303 -4203 0
-2401 -3901 0
-2402 -3902 0
-2403 -3903 0
-2401 -4101 0
-2402 -4102 0
-2403 -4103 0
-2401 -4201 0
-2402 -4202 0
-2403 -4203 0
-2501 -2801 0
-2502 -2802 0
-2503 -2803 0
-2501 -3701 0
-2502 -3702 0
-2503 -3703 0
-2601 -2801 0
-2602 -2802 0
-2603 -2803 0
-2601 -3101 0
-2602 -3102 0
-2603 -3103 0
-2601 -3801 0
-2602 -3802 0
-2603 -3803 0
-2801 -3001 0
-2802 -3002 0
-2803 -3003 0
-2801 -3101 0
-2802 -3102 0
-2803 -3103 0
-2801 -4101 0
-2802 -4102 0
-2803 -4103 0
-2901 -3301 0
-2902 -3302 0
-2903 -3303 0
-2901 -3501 0
-2902 -3502 0
-2903 -3503 0
-2901 -5001 0
-2902 -5002 0
-2903 -5003 0
-3001 -3401 0
-3002 -3402 0
-3003 -3403 0
-3001 -4801 0
-3002 -4802 0
-3003 -4803 0
-3101 -5001 0
-3102 -5002 0
-3103 -5003 0
-3201 -3301 0
-3202 -3302 0
-3203 -3303 0
-3201 -5001 0
-3202 -5002 0
-3203 -5003 0
-3301 -4201 0
-3302 -4202 0
-3303 -4203 0
-3401 -3501 0
-3402 -3502 0
-3403 -3503 0
-3401 -3801 0
-3402 -3802 0
-3403 -3803 0
-3401 -3901 0
-3402 -3902 0
-3403 -3903 0
-3501 -3801 0
-3502 -3802 0
-3503 -3803 0
-3501 -4801 0
-3502 -4802 0
-3503 -4803 0
-3601 -4301 0
-3602 -4302 0
-3603 -4303 0
-3601 -5001 0
-3602 -5002 0
-3603 -5003 0
-3801 -5001 0
-3802 -5002 0
-3803 -5003 0
-4001 -4401 0
-4002 -4402 0
-4003 -4403 0
-4001 -4601 0
-4002 -4602 0
-4003 -4603 0
-4501 -4601 0
-4502 -4602 0
-4503 -4603 0
-4601 -4901 0
-4602 -4902 0
-4603 -4903 0
